(declare-fun temp797_1 () (_ BitVec 64))
(declare-fun temp797_2 () (_ BitVec 64))
(declare-fun var70588 () (_ BitVec 64))
(declare-fun k!0 () Bool)
(declare-fun ARGNAME_input_0_NAMEEND_DIM () (_ BitVec 64))
(declare-fun temp797_3 () (_ BitVec 64))
(declare-fun ARGNAME_input_1_NAMEEND_DIM () (_ BitVec 64))
(declare-fun var137105 () (_ BitVec 64))
(declare-fun var137101 () (_ BitVec 64))
(declare-fun var70624 () (_ BitVec 64))
(declare-fun temp797_4 () (_ BitVec 64))
(declare-fun temp797_5 () (_ BitVec 64))
(declare-fun ARGNAME_input_1_NAMEEND_DIMSIZE
             ()
             (Array (_ BitVec 64) (_ BitVec 64)))
(declare-fun temp797_6 () (_ BitVec 64))
(declare-fun temp797_7 () (_ BitVec 64))
(declare-fun temp797_8 () (_ BitVec 64))
(declare-fun temp797_9 () (_ BitVec 64))
(declare-fun temp797_10 () (_ BitVec 64))
(declare-fun temp797_11 () (_ BitVec 64))
(declare-fun temp797_12 () (_ BitVec 64))
(declare-fun temp797_13 () (_ BitVec 64))
(declare-fun temp797_14 () (_ BitVec 64))
(declare-fun temp797_15 () (_ BitVec 64))
(declare-fun temp797_16 () (_ BitVec 64))
(declare-fun temp797_17 () (_ BitVec 64))
(declare-fun temp797_18 () (_ BitVec 64))
(declare-fun var70628 () (_ BitVec 64))
(declare-fun temp797_19 () (_ BitVec 64))
(declare-fun var70631 () (_ BitVec 64))
(declare-fun temp797_20 () (_ BitVec 64))
(declare-fun temp797_21 () (_ BitVec 64))
(declare-fun temp797_22 () (_ BitVec 64))
(declare-fun var70672 () (_ BitVec 64))
(declare-fun var70673 () (_ BitVec 64))
(declare-fun temp797_23 () (_ BitVec 64))
(declare-fun temp797_25 () (_ BitVec 64))
(declare-fun temp797_24 () (_ BitVec 64))
(declare-fun temp797_27 () (_ BitVec 64))
(declare-fun temp797_26 () (_ BitVec 64))
(declare-fun temp797_29 () (_ BitVec 64))
(declare-fun temp797_28 () (_ BitVec 64))
(declare-fun temp797_30 () (_ BitVec 64))
(declare-fun ARGNAME_input_2_NAMEEND_DIM () (_ BitVec 64))
(declare-fun var596104 () (_ BitVec 64))
(declare-fun var596100 () (_ BitVec 64))
(declare-fun var70737 () (_ BitVec 64))
(declare-fun temp797_31 () (_ BitVec 64))
(declare-fun temp797_32 () (_ BitVec 64))
(declare-fun var70819 () (_ BitVec 64))
(declare-fun temp797_33 () (_ BitVec 64))
(declare-fun temp797_34 () (_ BitVec 64))
(declare-fun var70840 () (_ BitVec 64))
(declare-fun var727224 () (_ BitVec 64))
(declare-fun temp797_35 () (_ BitVec 64))
(declare-fun var727225 () (_ BitVec 64))
(declare-fun temp797_36 () (_ BitVec 64))
(declare-fun var794563 () (_ BitVec 64))
(declare-fun var727228 () (_ BitVec 64))
(declare-fun temp797_37 () (_ BitVec 64))
(declare-fun var1185976 () (_ BitVec 64))
(declare-fun temp797_38 () (_ BitVec 64))
(declare-fun var1185977 () (_ BitVec 64))
(declare-fun temp797_39 () (_ BitVec 64))
(declare-fun var1253315 () (_ BitVec 64))
(declare-fun var1185980 () (_ BitVec 64))
(declare-fun temp797_40 () (_ BitVec 64))
(declare-fun var70890 () (_ BitVec 64))
(declare-fun temp797_41 () (_ BitVec 64))
(declare-fun ARGNAME_input_0_NAMEEND_DIMSIZE
             ()
             (Array (_ BitVec 64) (_ BitVec 64)))
(declare-fun temp797_42 () (_ BitVec 64))
(declare-fun temp797_43 () (_ BitVec 64))
(declare-fun temp797_44 () (_ BitVec 64))
(declare-fun temp797_45 () (_ BitVec 64))
(declare-fun temp797_46 () (_ BitVec 64))
(declare-fun temp797_47 () (_ BitVec 64))
(declare-fun temp797_48 () (_ BitVec 64))
(declare-fun temp797_49 () (_ BitVec 64))
(declare-fun temp797_50 () (_ BitVec 64))
(declare-fun temp797_51 () (_ BitVec 64))
(declare-fun temp797_52 () (_ BitVec 64))
(declare-fun temp797_53 () (_ BitVec 64))
(declare-fun var70891 () (_ BitVec 64))
(declare-fun temp797_54 () (_ BitVec 64))
(declare-fun var70921 () (_ BitVec 64))
(declare-fun var70925 () (_ BitVec 64))
(declare-fun temp797_55 () (_ BitVec 64))
(declare-fun var70926 () (_ BitVec 64))
(declare-fun temp797_56 () (_ BitVec 64))
(declare-fun var70828 () (_ BitVec 64))
(declare-fun var70827 () (_ BitVec 64))
(declare-fun temp797_59 () (_ BitVec 64))
(declare-fun var70933 () (_ BitVec 64))
(declare-fun temp797_60 () (_ BitVec 64))
(declare-fun var70935 () (_ BitVec 64))
(declare-fun temp797_61 () (_ BitVec 64))
(declare-fun temp797_62 () (_ BitVec 64))
(declare-fun var71011 () (_ BitVec 64))
(declare-fun temp797_63 () (_ BitVec 64))
(declare-fun temp797_65 () (_ BitVec 64))
(declare-fun temp797_64 () (_ BitVec 64))
(declare-fun temp797_67 () (_ BitVec 64))
(declare-fun temp797_66 () (_ BitVec 64))
(declare-fun temp797_69 () (_ BitVec 64))
(declare-fun temp797_68 () (_ BitVec 64))
(declare-fun temp797_71 () (_ BitVec 64))
(declare-fun temp797_70 () (_ BitVec 64))
(declare-fun temp797_73 () (_ BitVec 64))
(declare-fun temp797_72 () (_ BitVec 64))
(declare-fun temp797_75 () (_ BitVec 64))
(declare-fun temp797_74 () (_ BitVec 64))
(declare-fun temp797_77 () (_ BitVec 64))
(declare-fun temp797_76 () (_ BitVec 64))
(declare-fun temp797_79 () (_ BitVec 64))
(declare-fun temp797_78 () (_ BitVec 64))
(declare-fun temp797_81 () (_ BitVec 64))
(declare-fun temp797_80 () (_ BitVec 64))
(declare-fun temp797_83 () (_ BitVec 64))
(declare-fun temp797_82 () (_ BitVec 64))
(assert (= temp797_1 #x0000000000000009))
(assert (= var70588
   (ite (bvslt ARGNAME_input_0_NAMEEND_DIM temp797_1)
        #x0000000000000001
        #x0000000000000000)))
(assert (= temp797_2 #x0000000000000001))
(assert (= var70588 temp797_2))
(assert (= temp797_3 #x0000000000000002))
(assert (= var137105
   (ite (= ARGNAME_input_1_NAMEEND_DIM temp797_3)
        #x0000000000000001
        #x0000000000000000)))
(assert (= var137101 var137105))
(assert (= var70624 var137101))
(assert (= temp797_4 #x0000000000000001))
(assert (= var70624 temp797_4))
(assert (= temp797_5 #x0000000000000000))
(assert (= temp797_6 (select ARGNAME_input_1_NAMEEND_DIMSIZE temp797_5)))
(assert (= temp797_7 #x0000000000000001))
(assert (= temp797_8 (select ARGNAME_input_1_NAMEEND_DIMSIZE temp797_7)))
(assert (= temp797_9 #x0000000000000002))
(assert (= temp797_10 (select ARGNAME_input_1_NAMEEND_DIMSIZE temp797_9)))
(assert (= temp797_11 #x0000000000000003))
(assert (= temp797_12 (select ARGNAME_input_1_NAMEEND_DIMSIZE temp797_11)))
(assert (= temp797_13 #x0000000000000004))
(assert (= temp797_14 (select ARGNAME_input_1_NAMEEND_DIMSIZE temp797_13)))
(assert (= temp797_15 #x0000000000000005))
(assert (= temp797_16 (select ARGNAME_input_1_NAMEEND_DIMSIZE temp797_15)))
(assert (= temp797_17 #x0000000000000001))
(assert (= temp797_18 (select ARGNAME_input_1_NAMEEND_DIMSIZE temp797_17)))
(assert (= var70628 temp797_18))
(assert (= temp797_19 #x0000000000000002))
(assert (= var70631 (ite (= var70628 temp797_19) #x0000000000000001 #x0000000000000000)))
(assert (= temp797_20 #x0000000000000001))
(assert (= var70631 temp797_20))
(assert (= temp797_21 #x0000000000000000))
(assert (= temp797_22 (select ARGNAME_input_1_NAMEEND_DIMSIZE temp797_21)))
(assert (= var70672 temp797_22))
(assert (= var70673
   (ite (= var70672 ARGNAME_input_0_NAMEEND_DIM)
        #x0000000000000001
        #x0000000000000000)))
(assert (= temp797_23 #x0000000000000001))
(assert (= var70673 temp797_23))
(assert (= temp797_25 #x0000000000000000))
(assert (= temp797_24 temp797_25))
(assert (= temp797_27 #x0000000000000000))
(assert (= temp797_26 temp797_27))
(assert (= temp797_29 #x0000000000000000))
(assert (= temp797_28 temp797_29))
(assert (= temp797_30 #x0000000000000000))
(assert (= var596104
   (ite (= ARGNAME_input_2_NAMEEND_DIM temp797_30)
        #x0000000000000001
        #x0000000000000000)))
(assert (= var596100 var596104))
(assert (= var70737 var596100))
(assert (= temp797_31 #x0000000000000001))
(assert (= var70737 temp797_31))
(assert (= temp797_32 #x0000000000000000))
(assert (= var70819
   (ite (bvsgt ARGNAME_input_0_NAMEEND_DIM temp797_32)
        #x0000000000000001
        #x0000000000000000)))
(assert (= temp797_33 #x0000000000000001))
(assert (= var70819 temp797_33))
(assert (= temp797_34 #x0000000000000000))
(assert (= var70840 temp797_34))
(assert (= var727224 var70840))
(assert (= temp797_35 #x0000000000000000))
(assert (= var727225 temp797_35))
(assert (= temp797_36 #x0000000000000001))
(assert (= var794563 temp797_36))
(assert (= var727228 var794563))
(assert (= temp797_37 #x0000000000000001))
(assert (= var727228 temp797_37))
(assert (= var1185976 var70840))
(assert (= temp797_38 #x0000000000000001))
(assert (= var1185977 temp797_38))
(assert (= temp797_39 #x0000000000000001))
(assert (= var1253315 temp797_39))
(assert (= var1185980 var1253315))
(assert (= temp797_40 #x0000000000000001))
(assert (= var1185980 temp797_40))
(assert (= var70890 var70840))
(assert (= temp797_41 #x0000000000000000))
(assert (= temp797_42 (select ARGNAME_input_0_NAMEEND_DIMSIZE temp797_41)))
(assert (= temp797_43 #x0000000000000001))
(assert (= temp797_44 (select ARGNAME_input_0_NAMEEND_DIMSIZE temp797_43)))
(assert (= temp797_45 #x0000000000000002))
(assert (= temp797_46 (select ARGNAME_input_0_NAMEEND_DIMSIZE temp797_45)))
(assert (= temp797_47 #x0000000000000003))
(assert (= temp797_48 (select ARGNAME_input_0_NAMEEND_DIMSIZE temp797_47)))
(assert (= temp797_49 #x0000000000000004))
(assert (= temp797_50 (select ARGNAME_input_0_NAMEEND_DIMSIZE temp797_49)))
(assert (= temp797_51 #x0000000000000005))
(assert (= temp797_52 (select ARGNAME_input_0_NAMEEND_DIMSIZE temp797_51)))
(assert (= temp797_53 (select ARGNAME_input_0_NAMEEND_DIMSIZE var70890)))
(assert (= var70891 temp797_53))
(assert (= temp797_54 #x0000000000000000))
(assert (= var70921 temp797_54))
(assert (= var70925 var70921))
(assert (= temp797_55 #x0000000000000000))
(assert (= var70926 (ite (= var70925 temp797_55) #x0000000000000001 #x0000000000000000)))
(assert (= temp797_56 #x0000000000000001))
(assert (= var70828 (bvadd var70840 temp797_56)))
(assert (= var70827
   (ite (= var70828 ARGNAME_input_0_NAMEEND_DIM)
        #x0000000000000001
        #x0000000000000000)))
(assert (= temp797_59 #x000000000000000a))
(assert (= var70933 temp797_59))
(assert (= temp797_60 #x000000000000000a))
(assert (= var70935 (ite (= var70933 temp797_60) #x0000000000000001 #x0000000000000000)))
(assert (= temp797_61 #x0000000000000001))
(assert (= var70935 temp797_61))
(assert (= temp797_62 #x0000000000000001))
(assert (= var71011
   (ite (bvsgt ARGNAME_input_0_NAMEEND_DIM temp797_62)
        #x0000000000000001
        #x0000000000000000)))
(assert (= temp797_63 #x0000000000000001))
(assert (= var71011 temp797_63))
(assert (= temp797_65 #x0000000000000000))
(assert (= temp797_64 temp797_65))
(assert (= temp797_67 #x0000000000000000))
(assert (= temp797_66 temp797_67))
(assert (= temp797_69 #x0000000000000000))
(assert (= temp797_68 temp797_69))
(assert (= temp797_71 #x0000000000000000))
(assert (= temp797_70 temp797_71))
(assert (= temp797_73 #x0000000000000000))
(assert (= temp797_72 temp797_73))
(assert (= temp797_75 #x0000000000000001))
(assert (= temp797_74 temp797_75))
(assert (= temp797_77 #x0000000000000000))
(assert (= temp797_76 temp797_77))
(assert (= temp797_79 #x0000000000000000))
(assert (= temp797_78 temp797_79))
(assert (= temp797_81 #x0000000000000000))
(assert (= temp797_80 temp797_81))
(assert (= temp797_83 #x0000000000000000))
(assert (= temp797_82 temp797_83))
(model-add temp797_1 () (_ BitVec 64) #x0000000000000009)
(model-add temp797_2 () (_ BitVec 64) #x0000000000000001)
(model-add var70588 () (_ BitVec 64) #x0000000000000001)
(model-del k!0)
(model-add ARGNAME_input_0_NAMEEND_DIM
           ()
           (_ BitVec 64)
           (ite (or k!0 (= #x0000000000000009 #x8000000000000000))
                #x0000000000000009
                (bvsub #x0000000000000009 #x0000000000000001)))

